************************************************************************
file with basedata            : mm38_.bas
initial value random generator: 442758475
************************************************************************
projects                      :  1
jobs (incl. supersource/sink ):  12
horizon                       :  83
RESOURCES
  - renewable                 :  2   R
  - nonrenewable              :  2   N
  - doubly constrained        :  0   D
************************************************************************
PROJECT INFORMATION:
pronr.  #jobs rel.date duedate tardcost  MPM-Time
    1     10      0       15        1       15
************************************************************************
PRECEDENCE RELATIONS:
jobnr.    #modes  #successors   successors
   1        1          3           2   3   4
   2        3          1           5
   3        3          2           6  10
   4        3          2          10  11
   5        3          2           6  10
   6        3          3           7   8   9
   7        3          1          11
   8        3          1          11
   9        3          1          12
  10        3          1          12
  11        3          1          12
  12        1          0        
************************************************************************
REQUESTS/DURATIONS:
jobnr. mode duration  R 1  R 2  N 1  N 2
------------------------------------------------------------------------
  1      1     0       0    0    0    0
  2      1     3      10    9    9    8
         2     8       7    8    8    8
         3     8       8    6    9    7
  3      1     5       9    9    5    6
         2     8       6    8    2    6
         3    10       4    7    2    5
  4      1     2       8    2    7    6
         2     8       7    2    7    6
         3     9       5    2    6    6
  5      1     2       9    4    6    9
         2     4       7    3    4    8
         3     8       6    3    3    6
  6      1     1       2    5    8    2
         2     5       2    3    8    2
         3    10       2    1    8    1
  7      1     3       3    4   10    3
         2     6       3    4    7    3
         3     9       2    3    7    2
  8      1     3       9    5    6   10
         2     7       9    4    5    6
         3     8       9    2    5    3
  9      1     3       8    8    2    4
         2     5       8    8    1    4
         3     6       4    8    1    3
 10      1     3      10    9    6    4
         2     4      10    9    5    3
         3     8      10    8    5    2
 11      1     6       6    8    8    4
         2     7       5    8    6    3
         3     7       5    8    4    4
 12      1     0       0    0    0    0
************************************************************************
RESOURCEAVAILABILITIES:
  R 1  R 2  N 1  N 2
   14   12   58   47
************************************************************************
MAXIMAL LAGS:
from  to  type  delay
    1   12   ES      0
    1    2   ES      0
    2   12   ES      0
    1    3   ES      0
    3   12   ES      0
    1    4   ES      0
    4   12   ES      0
    1    5   ES      0
    5   12   ES      0
    1    6   ES      0
    6   12   ES      0
    1    7   ES      0
    7   12   ES      0
    1    8   ES      0
    8   12   ES      0
    1    9   ES      0
    9   12   ES      0
    1   10   ES      0
   10   12   ES      0
    1   11   ES      0
   11   12   ES      0
    1   12   ES      0
    2    5   SS     -9
    2    5   SE      8
    2    5   ES     -7
    2    5   EE    -10
    3    6   SS     -3
    3    6   SE    -10
    6    3   SE      0
    3    6   ES      0
    3    6   EE     -9
    3   10   SS     -4
    3   10   SE    -10
    3   10   ES     -2
    3   10   EE    -12
    4   10   SS      6
    4   10   SE     -5
    4   10   ES      3
    4   10   EE      3
    4   11   SS      9
    4   11   SE     12
    4   11   ES     -9
    4   11   EE    -12
    5    6   SS    -11
    5    6   SE     -4
    5    6   ES     12
    5    6   EE    -12
    5   10   SS      9
    5   10   SE      6
    5   10   ES    -11
    5   10   EE     -9
    6    7   SS     -6
    6    7   SE      4
    6    7   ES    -12
    6    7   EE      0
    6    8   SS      7
    6    8   SE      4
    6    8   ES     12
    6    8   EE     -4
    6    9   SS      3
    6    9   SE      3
    6    9   ES     12
    6    9   EE     -2
    7   11   SS      7
    7   11   SE      1
    7   11   ES     -2
    7   11   EE     -1
    8   11   SS      9
    8   11   SE     -2
    8   11   ES     -2
    8   11   EE     -5
************************************************************************
